NAME          BLANK   
ROWS
 N  OBJROW
 L  R0000000
COLUMNS
    C0000000  OBJROW     -470.         R0000000  96.         
    C0000001  OBJROW     -947.         R0000000  75.         
    C0000002  OBJROW     -928.         R0000000  182.        
    C0000003  OBJROW     -177.         R0000000  316.        
    C0000004  OBJROW     -833.         R0000000  607.        
    C0000005  OBJROW     -290.         R0000000  972.        
    C0000006  OBJROW     -481.         R0000000  895.        
    C0000007  OBJROW     -328.         R0000000  636.        
    C0000008  OBJROW     -675.         R0000000  669.        
    C0000009  OBJROW     -776.         R0000000  413.        
    C0000010  OBJROW     -467.         R0000000  510.        
    C0000011  OBJROW     -270.         R0000000  61.         
    C0000012  OBJROW     -932.         R0000000  260.        
    C0000013  OBJROW     -830.         R0000000  806.        
    C0000014  OBJROW     -460.         R0000000  324.        
    C0000015  OBJROW     -902.         R0000000  927.        
    C0000016  OBJROW     -261.         R0000000  268.        
    C0000017  OBJROW     -348.         R0000000  13.         
    C0000018  OBJROW     -87.          R0000000  877.        
    C0000019  OBJROW     -380.         R0000000  30.         
RHS
    RHS       R0000000  4468.       
BOUNDS
 BV BOUND     C0000000  1.          
 BV BOUND     C0000001  1.          
 BV BOUND     C0000002  1.          
 BV BOUND     C0000003  1.          
 BV BOUND     C0000004  1.          
 BV BOUND     C0000005  1.          
 BV BOUND     C0000006  1.          
 BV BOUND     C0000007  1.          
 BV BOUND     C0000008  1.          
 BV BOUND     C0000009  1.          
 BV BOUND     C0000010  1.          
 BV BOUND     C0000011  1.          
 BV BOUND     C0000012  1.          
 BV BOUND     C0000013  1.          
 BV BOUND     C0000014  1.          
 BV BOUND     C0000015  1.          
 BV BOUND     C0000016  1.          
 BV BOUND     C0000017  1.          
 BV BOUND     C0000018  1.          
 BV BOUND     C0000019  1.          
ENDATA
